experiments/knapsack_bounded/knapsack_bounded_10_8.mps
NAME
ROWS
 N  OBJ
 L  c1
 L  c2
 L  c3
 L  c4
 L  c5
 L  c6
 L  c7
 L  c8
 L  c9
 L  c10
 L  c11
COLUMNS
    MARKER    'MARKER'                 'INTORG'
    x[1]      c1        610
    x[1]      c2        1
    x[1]      OBJ       -1
    x[2]      c1        272
    x[2]      c3        1
    x[2]      OBJ       -272
    x[3]      c1        420
    x[3]      c4        1
    x[3]      OBJ       -7
    x[4]      c1        511
    x[4]      c5        1
    x[4]      OBJ       -30
    x[5]      c1        656
    x[5]      c6        1
    x[5]      OBJ       -395
    x[6]      c1        574
    x[6]      c7        1
    x[6]      OBJ       -973
    x[7]      c1        325
    x[7]      c8        1
    x[7]      OBJ       -442
    x[8]      c1        535
    x[8]      c9        1
    x[8]      OBJ       -854
    x[9]      c1        125
    x[9]      c10       1
    x[9]      OBJ       -2
    x[10]     c1        321
    x[10]     c11       1
    x[10]     OBJ       -139
    MARKER    'MARKER'                 'INTEND'
RHS
    rhs       c1        2174
    rhs       c2        3
    rhs       c3        9
    rhs       c4        2
    rhs       c5        3
    rhs       c6        9
    rhs       c7        8
    rhs       c8        9
    rhs       c9        2
    rhs       c10       1
    rhs       c11       6
RANGES
BOUNDS
 LO bounds    x[1]      0
 PL bounds    x[1]
 LO bounds    x[2]      0
 PL bounds    x[2]
 LO bounds    x[3]      0
 PL bounds    x[3]
 LO bounds    x[4]      0
 PL bounds    x[4]
 LO bounds    x[5]      0
 PL bounds    x[5]
 LO bounds    x[6]      0
 PL bounds    x[6]
 LO bounds    x[7]      0
 PL bounds    x[7]
 LO bounds    x[8]      0
 PL bounds    x[8]
 LO bounds    x[9]      0
 PL bounds    x[9]
 LO bounds    x[10]     0
 PL bounds    x[10]
ENDATA
